64 1975
0 3
0 4
0 5
0 11
0 12
0 13
0 14
0 19
0 20
0 21
0 28
0 31
0 32
0 33
0 34
0 35
0 36
0 37
0 38
0 39
0 40
0 41
0 43
0 44
0 45
0 47
0 51
0 52
0 53
0 54
0 56
0 58
0 59
1 3
1 5
1 8
1 14
1 16
1 19
1 22
1 24
1 25
1 26
1 27
1 28
1 29
1 30
1 32
1 34
1 35
1 38
1 44
1 47
1 48
1 50
1 51
1 53
1 56
1 57
1 58
1 59
1 61
1 62
1 63
2 0
2 1
2 8
2 11
2 13
2 16
2 17
2 20
2 21
2 22
2 23
2 24
2 25
2 27
2 28
2 29
2 33
2 35
2 36
2 38
2 42
2 46
2 47
2 48
2 49
2 50
2 51
2 52
2 53
2 54
2 55
2 56
2 60
3 2
3 4
3 5
3 6
3 7
3 8
3 9
3 11
3 13
3 17
3 19
3 21
3 22
3 26
3 28
3 29
3 33
3 37
3 38
3 39
3 40
3 42
3 47
3 48
3 50
3 51
3 52
3 54
3 58
3 59
3 60
3 61
3 63
4 0
4 3
4 6
4 12
4 13
4 16
4 17
4 18
4 21
4 22
4 28
4 29
4 30
4 32
4 37
4 43
4 47
4 49
4 50
4 51
4 52
4 53
4 54
4 55
4 56
4 60
4 61
5 0
5 3
5 9
5 11
5 12
5 14
5 16
5 19
5 20
5 21
5 22
5 23
5 32
5 34
5 35
5 36
5 37
5 40
5 42
5 43
5 47
5 48
5 49
5 50
5 51
5 53
5 54
5 55
5 56
5 57
5 58
5 63
6 1
6 3
6 5
6 10
6 12
6 13
6 15
6 17
6 21
6 23
6 25
6 28
6 30
6 32
6 33
6 34
6 35
6 37
6 38
6 41
6 42
6 46
6 47
6 48
6 50
6 52
6 53
6 54
6 55
6 56
6 57
6 58
6 59
6 63
7 2
7 4
7 5
7 6
7 15
7 18
7 20
7 21
7 23
7 24
7 25
7 28
7 29
7 30
7 31
7 32
7 33
7 35
7 36
7 37
7 39
7 40
7 41
7 43
7 45
7 52
7 53
7 56
7 57
7 58
7 59
7 62
8 0
8 3
8 4
8 5
8 9
8 11
8 13
8 14
8 15
8 18
8 19
8 22
8 23
8 25
8 30
8 32
8 35
8 37
8 45
8 47
8 48
8 49
8 50
8 52
8 53
8 56
8 57
8 60
8 61
8 63
9 0
9 3
9 6
9 13
9 17
9 19
9 20
9 22
9 23
9 28
9 29
9 31
9 33
9 34
9 36
9 41
9 44
9 47
9 48
9 49
9 50
9 51
9 52
9 53
9 55
9 56
9 57
9 59
10 0
10 4
10 5
10 6
10 8
10 11
10 12
10 13
10 15
10 17
10 18
10 23
10 24
10 25
10 26
10 28
10 30
10 31
10 33
10 34
10 35
10 36
10 37
10 39
10 41
10 46
10 49
10 50
10 51
10 54
10 56
10 58
10 60
10 61
11 0
11 3
11 4
11 5
11 9
11 10
11 13
11 14
11 15
11 17
11 18
11 19
11 20
11 21
11 22
11 24
11 26
11 27
11 29
11 30
11 33
11 34
11 36
11 37
11 41
11 44
11 49
11 52
11 54
11 55
11 57
11 58
11 59
11 60
11 62
12 0
12 5
12 6
12 8
12 9
12 10
12 14
12 19
12 20
12 21
12 25
12 28
12 31
12 33
12 35
12 37
12 40
12 41
12 43
12 46
12 50
12 51
12 54
12 55
12 56
12 58
12 60
12 62
12 63
13 0
13 2
13 4
13 7
13 8
13 9
13 14
13 17
13 19
13 20
13 22
13 24
13 26
13 27
13 28
13 34
13 35
13 36
13 37
13 40
13 41
13 43
13 45
13 46
13 48
13 49
13 50
13 52
13 54
13 60
13 61
14 0
14 4
14 11
14 13
14 20
14 21
14 24
14 27
14 28
14 30
14 32
14 34
14 35
14 38
14 40
14 41
14 42
14 43
14 44
14 48
14 51
14 52
14 53
14 54
14 56
14 61
14 62
15 6
15 16
15 17
15 19
15 21
15 22
15 23
15 24
15 25
15 27
15 28
15 29
15 30
15 31
15 34
15 37
15 42
15 43
15 45
15 51
15 53
15 54
15 56
15 57
15 59
15 60
15 61
16 0
16 1
16 3
16 6
16 7
16 9
16 10
16 11
16 12
16 18
16 21
16 22
16 23
16 24
16 25
16 26
16 29
16 32
16 34
16 35
16 36
16 39
16 42
16 43
16 47
16 50
16 56
16 58
16 59
16 60
17 2
17 4
17 6
17 11
17 12
17 13
17 16
17 20
17 22
17 27
17 33
17 34
17 39
17 40
17 42
17 44
17 45
17 46
17 48
17 52
17 53
17 54
17 55
17 56
17 58
17 60
17 62
17 63
18 1
18 3
18 4
18 7
18 9
18 11
18 13
18 14
18 16
18 20
18 22
18 23
18 24
18 27
18 28
18 29
18 30
18 33
18 34
18 38
18 40
18 41
18 43
18 44
18 45
18 47
18 50
18 51
18 53
18 56
18 57
18 61
18 62
19 0
19 1
19 2
19 3
19 10
19 16
19 17
19 20
19 24
19 26
19 27
19 28
19 29
19 30
19 31
19 32
19 38
19 39
19 40
19 43
19 45
19 46
19 47
19 50
19 52
19 53
19 60
19 62
19 63
20 2
20 4
20 5
20 6
20 7
20 8
20 9
20 10
20 12
20 16
20 21
20 22
20 23
20 24
20 25
20 28
20 29
20 33
20 34
20 36
20 38
20 40
20 41
20 45
20 46
20 48
20 49
20 51
20 52
20 53
20 54
20 56
20 58
20 61
20 62
20 63
21 1
21 2
21 3
21 5
21 6
21 13
21 14
21 15
21 16
21 18
21 19
21 20
21 26
21 27
21 32
21 34
21 39
21 40
21 41
21 43
21 46
21 48
21 49
21 50
21 51
21 55
21 57
21 58
21 59
21 60
21 61
22 0
22 1
22 4
22 6
22 7
22 8
22 11
22 15
22 16
22 19
22 21
22 23
22 25
22 27
22 28
22 29
22 30
22 31
22 34
22 36
22 37
22 40
22 41
22 46
22 47
22 48
22 50
22 52
22 53
22 58
22 59
22 60
22 62
22 63
23 3
23 4
23 9
23 10
23 15
23 18
23 25
23 26
23 27
23 28
23 29
23 30
23 31
23 33
23 41
23 43
23 45
23 46
23 48
23 49
23 52
23 53
23 56
23 59
24 0
24 1
24 2
24 6
24 7
24 13
24 14
24 15
24 22
24 27
24 28
24 31
24 33
24 35
24 37
24 43
24 45
24 47
24 49
24 55
24 56
24 59
24 60
24 61
25 1
25 3
25 4
25 5
25 9
25 10
25 11
25 12
25 13
25 14
25 15
25 17
25 20
25 24
25 27
25 31
25 32
25 33
25 34
25 36
25 41
25 44
25 45
25 49
25 50
25 54
25 56
25 60
25 61
26 0
26 2
26 7
26 9
26 10
26 11
26 14
26 18
26 19
26 21
26 28
26 29
26 30
26 31
26 34
26 36
26 38
26 40
26 42
26 44
26 45
26 46
26 49
26 50
26 55
26 58
26 59
26 62
26 63
27 0
27 1
27 4
27 6
27 7
27 9
27 11
27 12
27 13
27 14
27 15
27 16
27 17
27 18
27 19
27 20
27 22
27 23
27 24
27 28
27 29
27 30
27 34
27 35
27 36
27 37
27 39
27 40
27 41
27 42
27 43
27 48
27 51
27 52
27 54
27 59
27 60
27 62
28 2
28 3
28 4
28 5
28 6
28 7
28 8
28 9
28 11
28 12
28 18
28 22
28 24
28 25
28 26
28 29
28 30
28 34
28 36
28 40
28 43
28 48
28 49
28 51
28 54
28 55
28 57
28 58
28 59
28 60
28 61
29 0
29 1
29 2
29 4
29 5
29 10
29 12
29 13
29 14
29 15
29 18
29 19
29 22
29 23
29 24
29 25
29 26
29 34
29 35
29 36
29 37
29 38
29 40
29 45
29 46
29 47
29 49
29 50
29 51
29 52
29 54
29 55
29 60
29 61
30 0
30 4
30 6
30 7
30 12
30 14
30 16
30 22
30 25
30 26
30 27
30 28
30 29
30 32
30 37
30 38
30 40
30 44
30 48
30 49
30 50
30 51
30 53
30 54
30 55
30 57
30 58
30 59
31 3
31 7
31 9
31 10
31 11
31 12
31 13
31 21
31 26
31 30
31 34
31 35
31 36
31 37
31 46
31 47
31 48
31 50
31 51
31 52
31 54
31 55
31 58
31 59
31 61
32 0
32 2
32 3
32 4
32 6
32 7
32 8
32 9
32 11
32 13
32 14
32 16
32 17
32 18
32 20
32 21
32 23
32 24
32 25
32 27
32 30
32 31
32 34
32 37
32 39
32 40
32 41
32 42
32 45
32 48
32 54
32 56
32 59
32 62
33 0
33 2
33 3
33 6
33 7
33 8
33 11
33 12
33 13
33 14
33 17
33 18
33 19
33 21
33 24
33 25
33 27
33 28
33 29
33 30
33 31
33 32
33 34
33 35
33 36
33 37
33 38
33 39
33 42
33 43
33 47
33 48
33 49
33 50
33 53
33 60
33 62
34 0
34 14
34 17
34 18
34 21
34 22
34 23
34 26
34 29
34 30
34 32
34 33
34 35
34 36
34 38
34 39
34 40
34 45
34 46
34 47
34 55
34 63
35 1
35 2
35 4
35 10
35 12
35 14
35 18
35 19
35 21
35 27
35 28
35 31
35 32
35 34
35 37
35 42
35 43
35 45
35 46
35 47
35 48
35 50
35 51
35 52
35 57
35 59
35 63
36 0
36 1
36 3
36 5
36 6
36 8
36 9
36 11
36 17
36 18
36 19
36 21
36 22
36 25
36 27
36 28
36 31
36 33
36 39
36 41
36 42
36 45
36 47
36 48
36 53
36 55
36 59
36 60
37 2
37 3
37 5
37 6
37 8
37 9
37 13
37 15
37 17
37 20
37 22
37 23
37 25
37 32
37 41
37 42
37 47
37 50
37 53
37 55
37 56
37 57
37 58
37 59
37 63
38 0
38 3
38 4
38 5
38 6
38 8
38 9
38 12
38 14
38 15
38 21
38 22
38 23
38 25
38 26
38 28
38 30
38 32
38 33
38 34
38 35
38 39
38 40
38 41
38 42
38 43
38 46
38 48
38 50
38 51
38 53
38 54
38 55
38 56
38 57
38 60
38 61
39 2
39 4
39 6
39 8
39 10
39 12
39 15
39 16
39 18
39 19
39 22
39 24
39 25
39 26
39 30
39 33
39 37
39 38
39 40
39 43
39 44
39 46
39 47
39 48
39 51
39 52
39 53
39 55
39 56
39 57
39 59
40 1
40 2
40 3
40 6
40 7
40 10
40 13
40 17
40 18
40 20
40 22
40 23
40 24
40 30
40 31
40 33
40 37
40 38
40 41
40 43
40 45
40 46
40 47
40 51
40 54
40 57
40 59
40 61
40 62
40 63
41 1
41 3
41 5
41 7
41 8
41 9
41 13
41 16
41 17
41 18
41 22
41 23
41 25
41 30
41 32
41 37
41 43
41 48
41 51
41 53
41 54
42 3
42 6
42 7
42 11
42 12
42 14
42 16
42 17
42 18
42 19
42 21
42 22
42 23
42 24
42 25
42 28
42 30
42 31
42 33
42 34
42 35
42 36
42 37
42 40
42 41
42 44
42 45
42 50
42 54
42 57
42 58
42 61
43 1
43 5
43 6
43 7
43 11
43 15
43 18
43 21
43 23
43 24
43 26
43 27
43 29
43 33
43 37
43 38
43 42
43 47
43 49
43 50
43 53
43 57
43 58
43 60
43 63
44 0
44 1
44 2
44 3
44 4
44 5
44 10
44 11
44 13
44 15
44 17
44 18
44 20
44 22
44 26
44 28
44 30
44 32
44 33
44 35
44 37
44 39
44 40
44 41
44 43
44 47
44 52
44 53
44 56
44 57
44 59
44 60
44 61
45 0
45 5
45 6
45 7
45 8
45 13
45 16
45 21
45 24
45 25
45 26
45 28
45 32
45 34
45 35
45 38
45 40
45 42
45 44
45 46
45 48
45 51
45 53
45 54
45 55
45 56
45 59
45 61
45 62
46 5
46 8
46 9
46 10
46 11
46 14
46 15
46 18
46 23
46 24
46 26
46 28
46 29
46 30
46 31
46 32
46 34
46 35
46 37
46 40
46 41
46 44
46 45
46 48
46 49
46 51
46 60
46 61
46 62
47 2
47 4
47 5
47 7
47 8
47 10
47 12
47 13
47 14
47 17
47 18
47 23
47 24
47 26
47 28
47 29
47 32
47 33
47 34
47 38
47 42
47 43
47 44
47 46
47 48
47 50
47 51
47 53
47 54
47 55
47 56
47 57
47 58
47 59
47 60
48 2
48 3
48 6
48 10
48 16
48 17
48 18
48 19
48 21
48 27
48 28
48 30
48 31
48 34
48 36
48 37
48 40
48 41
48 46
48 47
48 50
48 51
48 54
48 55
48 56
48 57
48 58
49 0
49 1
49 3
49 4
49 6
49 8
49 10
49 11
49 12
49 13
49 14
49 15
49 19
49 20
49 25
49 26
49 27
49 28
49 32
49 34
49 35
49 38
49 40
49 45
49 46
49 47
49 50
49 51
49 52
49 53
49 54
49 57
49 58
49 62
49 63
50 0
50 2
50 5
50 6
50 9
50 10
50 11
50 12
50 16
50 17
50 19
50 21
50 22
50 24
50 28
50 29
50 30
50 31
50 32
50 34
50 36
50 38
50 43
50 44
50 47
50 48
50 51
50 52
50 56
50 60
50 61
50 62
51 2
51 4
51 5
51 6
51 7
51 8
51 9
51 13
51 15
51 16
51 19
51 20
51 21
51 22
51 23
51 24
51 27
51 30
51 31
51 32
51 34
51 35
51 36
51 37
51 41
51 42
51 44
51 45
51 48
51 50
51 52
51 54
51 55
51 56
51 62
52 0
52 2
52 3
52 5
52 6
52 9
52 11
52 12
52 14
52 19
52 20
52 21
52 22
52 24
52 25
52 26
52 27
52 29
52 32
52 34
52 35
52 39
52 42
52 43
52 44
52 46
52 47
52 50
52 51
52 55
52 57
52 58
52 59
52 60
52 61
52 62
53 0
53 1
53 9
53 10
53 11
53 14
53 15
53 16
53 17
53 18
53 20
53 21
53 24
53 25
53 26
53 31
53 34
53 35
53 37
53 39
53 42
53 45
53 47
53 48
53 50
53 51
53 52
53 54
53 58
53 62
53 63
54 0
54 2
54 4
54 7
54 8
54 10
54 11
54 13
54 17
54 19
54 25
54 28
54 30
54 31
54 32
54 33
54 34
54 35
54 38
54 39
54 40
54 41
54 43
54 44
54 45
54 48
54 49
54 50
54 56
54 57
54 58
54 63
55 3
55 9
55 10
55 12
55 15
55 16
55 17
55 20
55 21
55 22
55 23
55 25
55 26
55 27
55 28
55 30
55 32
55 33
55 34
55 37
55 41
55 44
55 46
55 47
55 48
55 49
55 57
55 58
55 59
55 60
55 62
55 63
56 2
56 4
56 5
56 7
56 10
56 12
56 14
56 15
56 16
56 18
56 19
56 20
56 21
56 23
56 24
56 28
56 29
56 31
56 32
56 33
56 34
56 35
56 36
56 37
56 42
56 44
56 46
56 47
56 48
56 50
56 53
56 54
56 60
56 62
57 2
57 4
57 5
57 8
57 11
57 12
57 14
57 15
57 16
57 17
57 21
57 22
57 25
57 26
57 28
57 33
57 34
57 42
57 45
57 46
57 47
57 48
57 49
57 55
57 61
57 62
57 63
58 2
58 4
58 6
58 7
58 8
58 9
58 10
58 11
58 15
58 18
58 21
58 22
58 24
58 27
58 28
58 30
58 31
58 32
58 33
58 34
58 35
58 37
58 42
58 43
58 44
58 45
58 47
58 49
58 50
58 51
58 52
58 53
58 55
58 60
58 61
59 2
59 3
59 4
59 6
59 7
59 10
59 11
59 13
59 14
59 15
59 16
59 17
59 22
59 23
59 24
59 25
59 26
59 28
59 31
59 32
59 33
59 34
59 35
59 40
59 46
59 47
59 50
59 52
59 53
59 54
59 56
59 57
59 58
59 61
59 62
59 63
60 1
60 2
60 4
60 5
60 6
60 7
60 9
60 12
60 15
60 17
60 20
60 21
60 24
60 25
60 26
60 28
60 32
60 33
60 35
60 36
60 38
60 39
60 40
60 41
60 42
60 43
60 45
60 47
60 48
60 49
60 51
60 52
60 53
60 54
60 55
60 57
60 59
60 61
61 2
61 3
61 5
61 7
61 10
61 11
61 12
61 15
61 16
61 17
61 18
61 19
61 20
61 22
61 24
61 28
61 32
61 36
61 38
61 40
61 41
61 42
61 43
61 44
61 45
61 47
61 48
61 51
61 53
61 55
61 58
61 63
62 1
62 2
62 6
62 8
62 10
62 14
62 22
62 23
62 26
62 27
62 31
62 32
62 33
62 34
62 36
62 40
62 42
62 43
62 44
62 46
62 47
62 48
62 49
62 52
62 54
62 55
62 56
62 57
62 58
62 61
62 63
63 6
63 8
63 9
63 14
63 15
63 16
63 18
63 19
63 20
63 22
63 23
63 24
63 27
63 31
63 33
63 34
63 36
63 37
63 39
63 41
63 44
63 46
63 47
63 49
63 54
63 56
63 57
63 61
